nj = 6;
nm = 4;
pidle =  [3 3 1 3];
Ops =  {<1 1 1 16 0 5 4> <1 2 3 15 1 1 4>
     <2 1 2 18 0 5 5>
     <2 2 4 15 1 2 3>
     <3 1 1 20 0 5 5>
     <3 2 2 10 1 1 4>
     <4 1 3 15 0 5 4>
     <4 2 4 10 1 3 5>
     <5 1 1 8 0 5 4>
     <5 2 2 10 0 1 3>
     <5 3 3 15 0 2 4>
     <5 4 4 17 1 3 4>
     <6 1 2 10 0 5 4>
     <6 2 3 15 0 2 3>
     <6 3 4 8 0 3 5>
     <6 4 1 15 1 4 5>};
